
50
56475

7581 581
9747 747
11340 4340
9720 3720
7581 581
4860 1860
12960 4960
10830 830
14580 5580
1620 620
4332 332
9747 747
7581 581
1083 83
4860 1860
1083 83
16200 6200
9720 3720
6480 2480
9747 747
14580 5580
8664 664
6498 498
11340 4340
12960 4960
3249 249
1620 620
9720 3720
11340 4340
11340 4340
1083 83
1620 620
9720 3720
9720 3720
6498 498
4860 1860
11340 4340
6498 498
1620 620
9720 3720
12960 4960
6480 2480
16200 6200
9747 747
9747 747
4332 332
16200 6200
9747 747
2166 166
4860 1860
